import Types.dzn;

interface IPlanner
{
    in void getMoveUpFastPlanning(Position current, Delay d, Position p);
    in void getMoveUpSlowPlanning(Position current, Delay d, Position p);

    in void getMoveDownFastPlanning(Position current, Delay d, Position p);
    in void getMoveDownSlowPlanning(Position current, Delay d, Position p);

    in  void setEndstopUpPosition(Position p);
    in  void setEndstopDownPosition(Position p);


    behavior {
         [ true ] on 
            getMoveUpFastPlanning,
            getMoveUpSlowPlanning,
     
            getMoveDownFastPlanning,
            getMoveDownSlowPlanning,
     
            setEndstopDownPosition, 
            setEndstopUpPosition: {}
    }
}